81
0 61 3 6 48 19 29 63 56 69 
30 62 50 53 38 54 35 47 42 28 
16 8 75 31 9 41 36 59 60 7 
25 17 77 32 10 51 37 68 72 33 
4 71 80 22 58 26 11 76 14 13 
43 34 2 39 57 79 65 21 27 49 
74 78 64 70 1 66 44 73 24 45 
18 15 5 67 55 52 23 20 40 12 
46 
